MSW01
Position Depot: Center
Horizon for Depot: Small
Position of customers: Mixt
Distribution of the demand: Large
Width of time windows: Wide
Distribution of the service: Large

VEHICLE 
NUMBER 	 CAPACITY 
 12 	 	 167 
 
CUSTOMER
CUST NO. 	 XCOORD.  	 YCOORD. 	 DEMAND 	 READY TIME 	 DUE DATE 	 SERVICE TIME 
 0 	 	 500 	 	 500 	 	 0 	 	 0 	 	 1945 	 	 0 
  1 	 	 912 	 	 145 	 	 93 	 	 1160 	 	 1416 	 	 132 
  2 	 	 801 	 	 497 	 	 79 	 	 252 	 	 495 	 	 137 
  3 	 	 861 	 	 331 	 	 15 	 	 1348 	 	 1604 	 	 114 
  4 	 	 678 	 	 86 	 	 92 	 	 1641 	 	 1945 	 	 112 
  5 	 	 102 	 	 487 	 	 19 	 	 398 	 	 821 	 	 198 
  6 	 	 840 	 	 295 	 	 59 	 	 1177 	 	 1483 	 	 180 
  7 	 	 906 	 	 21 	 	 77 	 	 895 	 	 1098 	 	 153 
  8 	 	 54 	 	 583 	 	 31 	 	 1685 	 	 1945 	 	 169 
  9 	 	 805 	 	 501 	 	 17 	 	 1426 	 	 1860 	 	 118 
  10 	 	 912 	 	 147 	 	 3 	 	 1251 	 	 1692 	 	 129 
  11 	 	 166 	 	 411 	 	 29 	 	 57 	 	 380 	 	 151 
  12 	 	 653 	 	 172 	 	 31 	 	 1249 	 	 1508 	 	 126 
  13 	 	 808 	 	 195 	 	 44 	 	 265 	 	 504 	 	 150 
  14 	 	 826 	 	 351 	 	 59 	 	 79 	 	 394 	 	 162 
  15 	 	 914 	 	 575 	 	 96 	 	 1655 	 	 1945 	 	 144 
  16 	 	 915 	 	 162 	 	 47 	 	 880 	 	 1280 	 	 181 
  17 	 	 851 	 	 532 	 	 43 	 	 755 	 	 1091 	 	 163 
  18 	 	 595 	 	 118 	 	 36 	 	 1113 	 	 1463 	 	 144 
  19 	 	 688 	 	 170 	 	 10 	 	 494 	 	 779 	 	 163 
  20 	 	 853 	 	 159 	 	 64 	 	 186 	 	 539 	 	 120 
  21 	 	 765 	 	 487 	 	 29 	 	 1656 	 	 1945 	 	 180 
  22 	 	 899 	 	 156 	 	 32 	 	 320 	 	 605 	 	 199 
  23 	 	 814 	 	 207 	 	 29 	 	 100 	 	 475 	 	 149 
  24 	 	 832 	 	 511 	 	 20 	 	 462 	 	 874 	 	 169 
  25 	 	 829 	 	 323 	 	 83 	 	 256 	 	 621 	 	 101 
  26 	 	 573 	 	 165 	 	 71 	 	 1398 	 	 1811 	 	 133 
  27 	 	 563 	 	 152 	 	 34 	 	 502 	 	 772 	 	 129 
  28 	 	 208 	 	 385 	 	 15 	 	 1551 	 	 1796 	 	 184 
  29 	 	 759 	 	 473 	 	 41 	 	 1487 	 	 1945 	 	 164 
  30 	 	 394 	 	 653 	 	 32 	 	 372 	 	 594 	 	 122 
  31 	 	 192 	 	 495 	 	 72 	 	 -90 	 	 338 	 	 116 
  32 	 	 710 	 	 655 	 	 65 	 	 434 	 	 770 	 	 150 
  33 	 	 595 	 	 178 	 	 11 	 	 800 	 	 1238 	 	 182 
  34 	 	 854 	 	 768 	 	 10 	 	 1438 	 	 1696 	 	 175 
  35 	 	 835 	 	 616 	 	 6 	 	 1206 	 	 1611 	 	 134 
  36 	 	 576 	 	 474 	 	 91 	 	 1103 	 	 1541 	 	 163 
  37 	 	 821 	 	 630 	 	 10 	 	 933 	 	 1234 	 	 158 
  38 	 	 642 	 	 923 	 	 14 	 	 959 	 	 1202 	 	 189 
  39 	 	 926 	 	 882 	 	 48 	 	 327 	 	 629 	 	 112 
  40 	 	 742 	 	 299 	 	 69 	 	 375 	 	 736 	 	 140 
  41 	 	 13 	 	 169 	 	 24 	 	 805 	 	 1016 	 	 153 
  42 	 	 369 	 	 453 	 	 47 	 	 -148 	 	 183 	 	 166 
  43 	 	 925 	 	 581 	 	 4 	 	 1007 	 	 1267 	 	 162 
  44 	 	 80 	 	 810 	 	 16 	 	 166 	 	 574 	 	 164 
  45 	 	 99 	 	 818 	 	 46 	 	 89 	 	 562 	 	 175 
  46 	 	 174 	 	 468 	 	 43 	 	 951 	 	 1173 	 	 154 
  47 	 	 904 	 	 650 	 	 30 	 	 250 	 	 651 	 	 197 
  48 	 	 346 	 	 421 	 	 12 	 	 691 	 	 1076 	 	 190 
  49 	 	 978 	 	 175 	 	 44 	 	 221 	 	 635 	 	 151 
  50 	 	 244 	 	 15 	 	 88 	 	 1620 	 	 1945 	 	 177 
 